Route #1: 5 56 15 28 13
Route #2: 21 55 54 22 52 45 12 58
Route #3: 60 3 57 30 61 62
Route #4: 63 25 48 9 64 40 44 53
Route #5: 39 42 34 6 36 4 46
Route #6: 14 50 11 59 24 29
Route #7: 7 20 19 1 49 35
Route #8: 65 37 23 8 32 51
Route #9: 17 38 10 27 43 16 41 66
Route #10: 31 18 26 2 47 33
Cost 1106